\ Model Routing_copy
\ LP format - for model browsing. Use MPS format to capture full model detail.
Minimize
 
Subject To
 flow_dst_4_3_3: x_4_3_2_3 - x_4_3_3_4 = 1
 flow_mid_5_4_3: x_5_4_2_3 - x_5_4_3_4 = 0
 flow_dst_5_4_4: x_5_4_3_4 - x_5_4_4_5 = 1
 flow_dst_5_3_3: x_5_3_2_3 - x_5_3_3_4 = 1
 capacity_2_3: 6 x_4_3_2_3 + 9 x_4_5_2_3 + 8 x_3_4_2_3 + x_3_5_2_3
   + 18 x_5_4_2_3 + 19 x_5_3_2_3 <= 24
Bounds
 x_4_3_2_3 free
 x_5_4_2_3 free
 x_5_4_3_4 free
 x_5_3_2_3 free
End
